
  22    4
  10   10   10   10

   0   0   0   0   0   9 2 3 4 5 6 8 9 10 11 
   3  10  10  10  10   7 21 20 19 18 16 15 12 
   7  10  10  10  10   4 19 16 13 12 
  10  10  10  10  10   2 16 7 
   2  10  10  10  10   5 19 17 16 14 13 
   9  10  10  10  10   5 20 18 16 15 14 
   6  10  10  10  10   3 18 15 12 
   7  10  10  10  10   4 20 19 16 14 
   4  10  10  10  10   3 16 14 13 
   7  10  10  10  10   3 16 14 13 
   1  10  10  10  10   3 21 18 14 
  10  10  10  10  10   2 17 14 
   8  10  10  10  10   1 15 
   3  10  10  10  10   1 22
   5  10  10  10  10   1 22
   7  10  10  10  10   1 22
  10  10  10  10  10   1 22
   3  10  10  10  10   1 22
   5  10  10  10  10   1 22
   5  10  10  10  10   1 22
   5  10  10  10  10   1 22
   0   0   0   0   0   0 
